50
1 6 17
2 15 18
3 11 10
4 0 20
5 15 20
6 19 12
7 15 13
8 19 14
9 8 10
10 1 4
11 4 3
12 2 16
13 0 17
14 1 4
15 0 20
16 9 6
17 10 0
18 8 1
19 2 11
20 3 14
21 0 13
22 13 3
23 5 0
24 20 6
25 9 20
26 11 0
27 2 17
28 0 18
29 17 2
30 18 7
31 15 0
32 11 14
33 7 16
34 10 6
35 16 14
36 6 10
37 9 8
38 7 2
39 14 16
40 12 9
41 16 0
42 20 20
43 16 9
44 13 11
45 2 6
46 2 12
47 11 4
48 10 0
49 20 6
50 8 13
